minimize
obj: 1 x_1_ + 1 x_2_ + 1 x_3_
subject to
c1_1: 1 t_1,1_ - 1 y_1,1_ <= 0
c2_1: 1 t_1,2_ - 1 y_1,1_ - 1 y_1,2_ <= 0
c3_1: 1 t_1,3_ - 1 y_1,2_ - 1 y_1,3_ <= 0
c4_1: 1 t_1,4_ - 1 y_1,3_ - 1 y_1,4_ <= 0
c5_1: 1 t_1,5_ - 1 y_1,4_ - 1 y_1,5_ <= 0
c6_1: 1 t_1,6_ - 1 y_1,5_ - 1 y_1,6_ <= 0
c7_1: 1 t_1,7_ - 1 y_1,6_ - 1 y_1,7_ <= 0
c8_1: 1 t_1,8_ - 1 y_1,7_ - 1 y_1,8_ <= 0
c9_1: 1 t_1,9_ - 1 y_1,8_ - 1 y_1,9_ <= 0
c10: 1 t_1,10_ - 1 y_1,9_ - 1 y_1,10_ <= 0
c11: 1 t_1,11_ - 1 y_1,10_ - 1 y_1,11_ <= 0
c12: 1 t_1,12_ - 1 y_1,11_ - 1 y_1,12_ <= 0
c13: 1 t_1,13_ - 1 y_1,12_ - 1 y_1,13_ <= 0
c14: 1 t_1,14_ - 1 y_1,13_ - 1 y_1,14_ <= 0
c15: 1 t_1,15_ - 1 y_1,14_ - 1 y_1,15_ <= 0
c16: 1 t_1,16_ - 1 y_1,15_ - 1 y_1,16_ <= 0
c17: 1 t_1,17_ - 1 y_1,16_ - 1 y_1,17_ <= 0
c18: 1 t_1,18_ - 1 y_1,17_ - 1 y_1,18_ <= 0
c19: 1 t_1,19_ - 1 y_1,18_ - 1 y_1,19_ <= 0
c20: 1 t_1,20_ - 1 y_1,19_ - 1 y_1,20_ <= 0
c21: 1 t_1,21_ - 1 y_1,20_ - 1 y_1,21_ <= 0
c22: 1 t_1,22_ - 1 y_1,21_ - 1 y_1,22_ <= 0
c23: 1 t_1,23_ - 1 y_1,22_ - 1 y_1,23_ <= 0
c24: 1 t_1,24_ - 1 y_1,23_ - 1 y_1,24_ <= 0
c25: 1 t_1,25_ - 1 y_1,24_ <= 0
c26: 1 t_2,1_ - 1 y_2,1_ <= 0
c27: 1 t_2,2_ - 1 y_2,1_ - 1 y_2,2_ <= 0
c28: 1 t_2,3_ - 1 y_2,2_ - 1 y_2,3_ <= 0
c29: 1 t_2,4_ - 1 y_2,3_ - 1 y_2,4_ <= 0
c30: 1 t_2,5_ - 1 y_2,4_ - 1 y_2,5_ <= 0
c31: 1 t_2,6_ - 1 y_2,5_ - 1 y_2,6_ <= 0
c32: 1 t_2,7_ - 1 y_2,6_ - 1 y_2,7_ <= 0
c33: 1 t_2,8_ - 1 y_2,7_ - 1 y_2,8_ <= 0
c34: 1 t_2,9_ - 1 y_2,8_ - 1 y_2,9_ <= 0
c35: 1 t_2,10_ - 1 y_2,9_ - 1 y_2,10_ <= 0
c36: 1 t_2,11_ - 1 y_2,10_ - 1 y_2,11_ <= 0
c37: 1 t_2,12_ - 1 y_2,11_ - 1 y_2,12_ <= 0
c38: 1 t_2,13_ - 1 y_2,12_ - 1 y_2,13_ <= 0
c39: 1 t_2,14_ - 1 y_2,13_ - 1 y_2,14_ <= 0
c40: 1 t_2,15_ - 1 y_2,14_ - 1 y_2,15_ <= 0
c41: 1 t_2,16_ - 1 y_2,15_ - 1 y_2,16_ <= 0
c42: 1 t_2,17_ - 1 y_2,16_ - 1 y_2,17_ <= 0
c43: 1 t_2,18_ - 1 y_2,17_ - 1 y_2,18_ <= 0
c44: 1 t_2,19_ - 1 y_2,18_ - 1 y_2,19_ <= 0
c45: 1 t_2,20_ - 1 y_2,19_ - 1 y_2,20_ <= 0
c46: 1 t_2,21_ - 1 y_2,20_ - 1 y_2,21_ <= 0
c47: 1 t_2,22_ - 1 y_2,21_ - 1 y_2,22_ <= 0
c48: 1 t_2,23_ - 1 y_2,22_ - 1 y_2,23_ <= 0
c49: 1 t_2,24_ - 1 y_2,23_ - 1 y_2,24_ <= 0
c50: 1 t_2,25_ - 1 y_2,24_ <= 0
c51: 1 t_3,1_ - 1 y_3,1_ <= 0
c52: 1 t_3,2_ - 1 y_3,1_ - 1 y_3,2_ <= 0
c53: 1 t_3,3_ - 1 y_3,2_ - 1 y_3,3_ <= 0
c54: 1 t_3,4_ - 1 y_3,3_ - 1 y_3,4_ <= 0
c55: 1 t_3,5_ - 1 y_3,4_ - 1 y_3,5_ <= 0
c56: 1 t_3,6_ - 1 y_3,5_ - 1 y_3,6_ <= 0
c57: 1 t_3,7_ - 1 y_3,6_ - 1 y_3,7_ <= 0
c58: 1 t_3,8_ - 1 y_3,7_ - 1 y_3,8_ <= 0
c59: 1 t_3,9_ - 1 y_3,8_ - 1 y_3,9_ <= 0
c60: 1 t_3,10_ - 1 y_3,9_ - 1 y_3,10_ <= 0
c61: 1 t_3,11_ - 1 y_3,10_ - 1 y_3,11_ <= 0
c62: 1 t_3,12_ - 1 y_3,11_ - 1 y_3,12_ <= 0
c63: 1 t_3,13_ - 1 y_3,12_ - 1 y_3,13_ <= 0
c64: 1 t_3,14_ - 1 y_3,13_ - 1 y_3,14_ <= 0
c65: 1 t_3,15_ - 1 y_3,14_ - 1 y_3,15_ <= 0
c66: 1 t_3,16_ - 1 y_3,15_ - 1 y_3,16_ <= 0
c67: 1 t_3,17_ - 1 y_3,16_ - 1 y_3,17_ <= 0
c68: 1 t_3,18_ - 1 y_3,17_ - 1 y_3,18_ <= 0
c69: 1 t_3,19_ - 1 y_3,18_ - 1 y_3,19_ <= 0
c70: 1 t_3,20_ - 1 y_3,19_ - 1 y_3,20_ <= 0
c71: 1 t_3,21_ - 1 y_3,20_ - 1 y_3,21_ <= 0
c72: 1 t_3,22_ - 1 y_3,21_ - 1 y_3,22_ <= 0
c73: 1 t_3,23_ - 1 y_3,22_ - 1 y_3,23_ <= 0
c74: 1 t_3,24_ - 1 y_3,23_ - 1 y_3,24_ <= 0
c75: 1 t_3,25_ - 1 y_3,24_ <= 0
c76: 4 t_1,1_ + 4 t_2,1_ + 4 t_3,1_ + 3.3611111111111116 t_1,2_ + 3.3611111111111116 t_2,2_ + 3.3611111111111116 t_3,2_ + 2.7777777777777772 t_1,3_ + 2.7777777777777772 t_2,3_ + 2.7777777777777772 t_3,3_ + 2.25 t_1,4_ + 2.25 t_2,4_ + 2.25 t_3,4_ + 1.7777777777777781 t_1,5_ + 1.7777777777777781 t_2,5_ + 1.7777777777777781 t_3,5_ + 1.3611111111111107 t_1,6_ + 1.3611111111111107 t_2,6_ + 1.3611111111111107 t_3,6_ + 1 t_1,7_ + 1 t_2,7_ + 1 t_3,7_ + 0.6944444444444441 t_1,8_ + 0.6944444444444441 t_2,8_ + 0.6944444444444441 t_3,8_ + 0.4444444444444447 t_1,9_ + 0.4444444444444447 t_2,9_ + 0.4444444444444447 t_3,9_ + 0.25 t_1,10_ + 0.25 t_2,10_ + 0.25 t_3,10_ + 0.111111111111111 t_1,11_ + 0.111111111111111 t_2,11_ + 0.111111111111111 t_3,11_ + 0.02777777777777784 t_1,12_ + 0.02777777777777784 t_2,12_ + 0.02777777777777784 t_3,12_ + 0.027777777777777728 t_1,14_ + 0.027777777777777728 t_2,14_ + 0.027777777777777728 t_3,14_ + 0.11111111111111122 t_1,15_ + 0.11111111111111122 t_2,15_ + 0.11111111111111122 t_3,15_ + 0.25 t_1,16_ + 0.25 t_2,16_ + 0.25 t_3,16_ + 0.44444444444444425 t_1,17_ + 0.44444444444444425 t_2,17_ + 0.44444444444444425 t_3,17_ + 0.6944444444444446 t_1,18_ + 0.6944444444444446 t_2,18_ + 0.6944444444444446 t_3,18_ + 1 t_1,19_ + 1 t_2,19_ + 1 t_3,19_ + 1.3611111111111107 t_1,20_ + 1.3611111111111107 t_2,20_ + 1.3611111111111107 t_3,20_ + 1.7777777777777781 t_1,21_ + 1.7777777777777781 t_2,21_ + 1.7777777777777781 t_3,21_ + 2.25 t_1,22_ + 2.25 t_2,22_ + 2.25 t_3,22_ + 2.7777777777777772 t_1,23_ + 2.7777777777777772 t_2,23_ + 2.7777777777777772 t_3,23_ + 3.3611111111111116 t_1,24_ + 3.3611111111111116 t_2,24_ + 3.3611111111111116 t_3,24_ + 4 t_1,25_ + 4 t_2,25_ + 4 t_3,25_ <= 1
c1: 1 y_1,1_ + 1 y_1,2_ + 1 y_1,3_ + 1 y_1,4_ + 1 y_1,5_ + 1 y_1,6_ + 1 y_1,7_ + 1 y_1,8_ + 1 y_1,9_ + 1 y_1,10_ + 1 y_1,11_ + 1 y_1,12_ + 1 y_1,13_ + 1 y_1,14_ + 1 y_1,15_ + 1 y_1,16_ + 1 y_1,17_ + 1 y_1,18_ + 1 y_1,19_ + 1 y_1,20_ + 1 y_1,21_ + 1 y_1,22_ + 1 y_1,23_ + 1 y_1,24_ = 1
c2: 1 t_1,1_ + 1 t_1,2_ + 1 t_1,3_ + 1 t_1,4_ + 1 t_1,5_ + 1 t_1,6_ + 1 t_1,7_ + 1 t_1,8_ + 1 t_1,9_ + 1 t_1,10_ + 1 t_1,11_ + 1 t_1,12_ + 1 t_1,13_ + 1 t_1,14_ + 1 t_1,15_ + 1 t_1,16_ + 1 t_1,17_ + 1 t_1,18_ + 1 t_1,19_ + 1 t_1,20_ + 1 t_1,21_ + 1 t_1,22_ + 1 t_1,23_ + 1 t_1,24_ + 1 t_1,25_ = 1
c3: -2 t_1,1_ - 1.8333333333333335 t_1,2_ - 1.6666666666666665 t_1,3_ - 1.5 t_1,4_ - 1.3333333333333335 t_1,5_ - 1.1666666666666665 t_1,6_ - 1 t_1,7_ - 0.8333333333333331 t_1,8_ - 0.6666666666666669 t_1,9_ - 0.5 t_1,10_ - 0.33333333333333315 t_1,11_ - 0.16666666666666685 t_1,12_ + 0.16666666666666652 t_1,14_ + 0.3333333333333335 t_1,15_ + 0.5 t_1,16_ + 0.6666666666666665 t_1,17_ + 0.8333333333333335 t_1,18_ + 1 t_1,19_ + 1.1666666666666665 t_1,20_ + 1.3333333333333335 t_1,21_ + 1.5 t_1,22_ + 1.6666666666666665 t_1,23_ + 1.8333333333333335 t_1,24_ + 2 t_1,25_ - 1 x_1_ = 0
c4: 1 y_2,1_ + 1 y_2,2_ + 1 y_2,3_ + 1 y_2,4_ + 1 y_2,5_ + 1 y_2,6_ + 1 y_2,7_ + 1 y_2,8_ + 1 y_2,9_ + 1 y_2,10_ + 1 y_2,11_ + 1 y_2,12_ + 1 y_2,13_ + 1 y_2,14_ + 1 y_2,15_ + 1 y_2,16_ + 1 y_2,17_ + 1 y_2,18_ + 1 y_2,19_ + 1 y_2,20_ + 1 y_2,21_ + 1 y_2,22_ + 1 y_2,23_ + 1 y_2,24_ = 1
c5: 1 t_2,1_ + 1 t_2,2_ + 1 t_2,3_ + 1 t_2,4_ + 1 t_2,5_ + 1 t_2,6_ + 1 t_2,7_ + 1 t_2,8_ + 1 t_2,9_ + 1 t_2,10_ + 1 t_2,11_ + 1 t_2,12_ + 1 t_2,13_ + 1 t_2,14_ + 1 t_2,15_ + 1 t_2,16_ + 1 t_2,17_ + 1 t_2,18_ + 1 t_2,19_ + 1 t_2,20_ + 1 t_2,21_ + 1 t_2,22_ + 1 t_2,23_ + 1 t_2,24_ + 1 t_2,25_ = 1
c6: -2 t_2,1_ - 1.8333333333333335 t_2,2_ - 1.6666666666666665 t_2,3_ - 1.5 t_2,4_ - 1.3333333333333335 t_2,5_ - 1.1666666666666665 t_2,6_ - 1 t_2,7_ - 0.8333333333333331 t_2,8_ - 0.6666666666666669 t_2,9_ - 0.5 t_2,10_ - 0.33333333333333315 t_2,11_ - 0.16666666666666685 t_2,12_ + 0.16666666666666652 t_2,14_ + 0.3333333333333335 t_2,15_ + 0.5 t_2,16_ + 0.6666666666666665 t_2,17_ + 0.8333333333333335 t_2,18_ + 1 t_2,19_ + 1.1666666666666665 t_2,20_ + 1.3333333333333335 t_2,21_ + 1.5 t_2,22_ + 1.6666666666666665 t_2,23_ + 1.8333333333333335 t_2,24_ + 2 t_2,25_ - 1 x_2_ = 0
c7: 1 y_3,1_ + 1 y_3,2_ + 1 y_3,3_ + 1 y_3,4_ + 1 y_3,5_ + 1 y_3,6_ + 1 y_3,7_ + 1 y_3,8_ + 1 y_3,9_ + 1 y_3,10_ + 1 y_3,11_ + 1 y_3,12_ + 1 y_3,13_ + 1 y_3,14_ + 1 y_3,15_ + 1 y_3,16_ + 1 y_3,17_ + 1 y_3,18_ + 1 y_3,19_ + 1 y_3,20_ + 1 y_3,21_ + 1 y_3,22_ + 1 y_3,23_ + 1 y_3,24_ = 1
c8: 1 t_3,1_ + 1 t_3,2_ + 1 t_3,3_ + 1 t_3,4_ + 1 t_3,5_ + 1 t_3,6_ + 1 t_3,7_ + 1 t_3,8_ + 1 t_3,9_ + 1 t_3,10_ + 1 t_3,11_ + 1 t_3,12_ + 1 t_3,13_ + 1 t_3,14_ + 1 t_3,15_ + 1 t_3,16_ + 1 t_3,17_ + 1 t_3,18_ + 1 t_3,19_ + 1 t_3,20_ + 1 t_3,21_ + 1 t_3,22_ + 1 t_3,23_ + 1 t_3,24_ + 1 t_3,25_ = 1
c9: -2 t_3,1_ - 1.8333333333333335 t_3,2_ - 1.6666666666666665 t_3,3_ - 1.5 t_3,4_ - 1.3333333333333335 t_3,5_ - 1.1666666666666665 t_3,6_ - 1 t_3,7_ - 0.8333333333333331 t_3,8_ - 0.6666666666666669 t_3,9_ - 0.5 t_3,10_ - 0.33333333333333315 t_3,11_ - 0.16666666666666685 t_3,12_ + 0.16666666666666652 t_3,14_ + 0.3333333333333335 t_3,15_ + 0.5 t_3,16_ + 0.6666666666666665 t_3,17_ + 0.8333333333333335 t_3,18_ + 1 t_3,19_ + 1.1666666666666665 t_3,20_ + 1.3333333333333335 t_3,21_ + 1.5 t_3,22_ + 1.6666666666666665 t_3,23_ + 1.8333333333333335 t_3,24_ + 2 t_3,25_ - 1 x_3_ = 0
Bounds
x_1_ <= 2
x_2_ <= 2
x_3_ <= 2
t_1,1_ >= 0
t_2,1_ >= 0
t_3,1_ >= 0
t_1,2_ >= 0
t_2,2_ >= 0
t_3,2_ >= 0
t_1,3_ >= 0
t_2,3_ >= 0
t_3,3_ >= 0
t_1,4_ >= 0
t_2,4_ >= 0
t_3,4_ >= 0
t_1,5_ >= 0
t_2,5_ >= 0
t_3,5_ >= 0
t_1,6_ >= 0
t_2,6_ >= 0
t_3,6_ >= 0
t_1,7_ >= 0
t_2,7_ >= 0
t_3,7_ >= 0
t_1,8_ >= 0
t_2,8_ >= 0
t_3,8_ >= 0
t_1,9_ >= 0
t_2,9_ >= 0
t_3,9_ >= 0
t_1,10_ >= 0
t_2,10_ >= 0
t_3,10_ >= 0
t_1,11_ >= 0
t_2,11_ >= 0
t_3,11_ >= 0
t_1,12_ >= 0
t_2,12_ >= 0
t_3,12_ >= 0
t_1,13_ >= 0
t_2,13_ >= 0
t_3,13_ >= 0
t_1,14_ >= 0
t_2,14_ >= 0
t_3,14_ >= 0
t_1,15_ >= 0
t_2,15_ >= 0
t_3,15_ >= 0
t_1,16_ >= 0
t_2,16_ >= 0
t_3,16_ >= 0
t_1,17_ >= 0
t_2,17_ >= 0
t_3,17_ >= 0
t_1,18_ >= 0
t_2,18_ >= 0
t_3,18_ >= 0
t_1,19_ >= 0
t_2,19_ >= 0
t_3,19_ >= 0
t_1,20_ >= 0
t_2,20_ >= 0
t_3,20_ >= 0
t_1,21_ >= 0
t_2,21_ >= 0
t_3,21_ >= 0
t_1,22_ >= 0
t_2,22_ >= 0
t_3,22_ >= 0
t_1,23_ >= 0
t_2,23_ >= 0
t_3,23_ >= 0
t_1,24_ >= 0
t_2,24_ >= 0
t_3,24_ >= 0
t_1,25_ >= 0
t_2,25_ >= 0
t_3,25_ >= 0
x_1_ >= -2
x_2_ >= -2
x_3_ >= -2
Binary
y_1,1_
y_2,1_
y_3,1_
y_1,2_
y_2,2_
y_3,2_
y_1,3_
y_2,3_
y_3,3_
y_1,4_
y_2,4_
y_3,4_
y_1,5_
y_2,5_
y_3,5_
y_1,6_
y_2,6_
y_3,6_
y_1,7_
y_2,7_
y_3,7_
y_1,8_
y_2,8_
y_3,8_
y_1,9_
y_2,9_
y_3,9_
y_1,10_
y_2,10_
y_3,10_
y_1,11_
y_2,11_
y_3,11_
y_1,12_
y_2,12_
y_3,12_
y_1,13_
y_2,13_
y_3,13_
y_1,14_
y_2,14_
y_3,14_
y_1,15_
y_2,15_
y_3,15_
y_1,16_
y_2,16_
y_3,16_
y_1,17_
y_2,17_
y_3,17_
y_1,18_
y_2,18_
y_3,18_
y_1,19_
y_2,19_
y_3,19_
y_1,20_
y_2,20_
y_3,20_
y_1,21_
y_2,21_
y_3,21_
y_1,22_
y_2,22_
y_3,22_
y_1,23_
y_2,23_
y_3,23_
y_1,24_
y_2,24_
y_3,24_
End
